c Modular CNF with 4 modules
c Generated CNF instance
p cnf 40 640
7 2 4 0
7 2 -4 0
7 -2 4 0
-7 2 4 0
4 6 1 0
4 6 -1 0
4 -6 1 0
-4 6 1 0
3 6 2 0
3 6 -2 0
3 -6 2 0
-3 6 2 0
9 4 1 0
9 4 -1 0
9 -4 1 0
-9 4 1 0
3 1 10 0
3 1 -10 0
3 -1 10 0
-3 1 10 0
3 2 6 0
3 2 -6 0
3 -2 6 0
-3 2 6 0
7 5 1 0
7 5 -1 0
7 -5 1 0
-7 5 1 0
2 7 10 0
2 7 -10 0
2 -7 10 0
-2 7 10 0
8 1 5 0
8 1 -5 0
8 -1 5 0
-8 1 5 0
9 1 4 0
9 1 -4 0
9 -1 4 0
-9 1 4 0
1 7 5 0
1 7 -5 0
1 -7 5 0
-1 7 5 0
8 1 3 0
8 1 -3 0
8 -1 3 0
-8 1 3 0
8 7 10 0
8 7 -10 0
8 -7 10 0
-8 7 10 0
7 8 3 0
7 8 -3 0
7 -8 3 0
-7 8 3 0
4 8 3 0
4 8 -3 0
4 -8 3 0
-4 8 3 0
3 8 10 0
3 8 -10 0
3 -8 10 0
-3 8 10 0
3 1 8 0
3 1 -8 0
3 -1 8 0
-3 1 8 0
3 9 6 0
3 9 -6 0
3 -9 6 0
-3 9 6 0
9 1 6 0
9 1 -6 0
9 -1 6 0
-9 1 6 0
3 5 8 0
3 5 -8 0
3 -5 8 0
-3 5 8 0
7 8 10 0
7 8 -10 0
7 -8 10 0
-7 8 10 0
4 8 7 0
4 8 -7 0
4 -8 7 0
-4 8 7 0
10 2 8 0
10 2 -8 0
10 -2 8 0
-10 2 8 0
8 7 4 0
8 7 -4 0
8 -7 4 0
-8 7 4 0
5 4 3 0
5 4 -3 0
5 -4 3 0
-5 4 3 0
7 6 8 0
7 6 -8 0
7 -6 8 0
-7 6 8 0
9 1 2 0
9 1 -2 0
9 -1 2 0
-9 1 2 0
4 5 2 0
4 5 -2 0
4 -5 2 0
-4 5 2 0
2 10 7 0
2 10 -7 0
2 -10 7 0
-2 10 7 0
9 8 6 0
9 8 -6 0
9 -8 6 0
-9 8 6 0
8 3 6 0
8 3 -6 0
8 -3 6 0
-8 3 6 0
1 2 6 0
1 2 -6 0
1 -2 6 0
-1 2 6 0
10 4 5 0
10 4 -5 0
10 -4 5 0
-10 4 5 0
9 1 4 0
9 1 -4 0
9 -1 4 0
-9 1 4 0
6 9 8 0
6 9 -8 0
6 -9 8 0
-6 9 8 0
10 1 9 0
10 1 -9 0
10 -1 9 0
-10 1 9 0
7 4 6 0
7 4 -6 0
7 -4 6 0
-7 4 6 0
7 1 9 0
7 1 -9 0
7 -1 9 0
-7 1 9 0
1 4 3 0
1 4 -3 0
1 -4 3 0
-1 4 3 0
9 2 5 0
9 2 -5 0
9 -2 5 0
-9 2 5 0
19 16 17 0
19 16 -17 0
19 -16 17 0
-19 16 17 0
14 15 17 0
14 15 -17 0
14 -15 17 0
-14 15 17 0
15 14 16 0
15 14 -16 0
15 -14 16 0
-15 14 16 0
19 13 15 0
19 13 -15 0
19 -13 15 0
-19 13 15 0
19 14 11 0
19 14 -11 0
19 -14 11 0
-19 14 11 0
11 16 14 0
11 16 -14 0
11 -16 14 0
-11 16 14 0
12 16 18 0
12 16 -18 0
12 -16 18 0
-12 16 18 0
12 13 19 0
12 13 -19 0
12 -13 19 0
-12 13 19 0
14 11 15 0
14 11 -15 0
14 -11 15 0
-14 11 15 0
18 19 12 0
18 19 -12 0
18 -19 12 0
-18 19 12 0
18 14 15 0
18 14 -15 0
18 -14 15 0
-18 14 15 0
19 14 17 0
19 14 -17 0
19 -14 17 0
-19 14 17 0
12 19 16 0
12 19 -16 0
12 -19 16 0
-12 19 16 0
15 19 11 0
15 19 -11 0
15 -19 11 0
-15 19 11 0
20 16 18 0
20 16 -18 0
20 -16 18 0
-20 16 18 0
14 20 19 0
14 20 -19 0
14 -20 19 0
-14 20 19 0
18 17 20 0
18 17 -20 0
18 -17 20 0
-18 17 20 0
11 17 12 0
11 17 -12 0
11 -17 12 0
-11 17 12 0
12 16 19 0
12 16 -19 0
12 -16 19 0
-12 16 19 0
11 19 13 0
11 19 -13 0
11 -19 13 0
-11 19 13 0
12 17 15 0
12 17 -15 0
12 -17 15 0
-12 17 15 0
12 13 17 0
12 13 -17 0
12 -13 17 0
-12 13 17 0
18 19 13 0
18 19 -13 0
18 -19 13 0
-18 19 13 0
18 17 13 0
18 17 -13 0
18 -17 13 0
-18 17 13 0
15 13 16 0
15 13 -16 0
15 -13 16 0
-15 13 16 0
15 14 16 0
15 14 -16 0
15 -14 16 0
-15 14 16 0
11 18 14 0
11 18 -14 0
11 -18 14 0
-11 18 14 0
14 20 19 0
14 20 -19 0
14 -20 19 0
-14 20 19 0
15 17 13 0
15 17 -13 0
15 -17 13 0
-15 17 13 0
17 15 20 0
17 15 -20 0
17 -15 20 0
-17 15 20 0
15 11 16 0
15 11 -16 0
15 -11 16 0
-15 11 16 0
14 11 19 0
14 11 -19 0
14 -11 19 0
-14 11 19 0
18 15 12 0
18 15 -12 0
18 -15 12 0
-18 15 12 0
13 12 18 0
13 12 -18 0
13 -12 18 0
-13 12 18 0
17 19 16 0
17 19 -16 0
17 -19 16 0
-17 19 16 0
18 14 20 0
18 14 -20 0
18 -14 20 0
-18 14 20 0
11 20 19 0
11 20 -19 0
11 -20 19 0
-11 20 19 0
13 11 17 0
13 11 -17 0
13 -11 17 0
-13 11 17 0
17 16 13 0
17 16 -13 0
17 -16 13 0
-17 16 13 0
11 14 19 0
11 14 -19 0
11 -14 19 0
-11 14 19 0
25 28 26 0
25 28 -26 0
25 -28 26 0
-25 28 26 0
23 26 24 0
23 26 -24 0
23 -26 24 0
-23 26 24 0
27 29 21 0
27 29 -21 0
27 -29 21 0
-27 29 21 0
27 24 28 0
27 24 -28 0
27 -24 28 0
-27 24 28 0
22 29 30 0
22 29 -30 0
22 -29 30 0
-22 29 30 0
28 21 29 0
28 21 -29 0
28 -21 29 0
-28 21 29 0
29 30 28 0
29 30 -28 0
29 -30 28 0
-29 30 28 0
28 24 29 0
28 24 -29 0
28 -24 29 0
-28 24 29 0
27 28 26 0
27 28 -26 0
27 -28 26 0
-27 28 26 0
21 26 29 0
21 26 -29 0
21 -26 29 0
-21 26 29 0
25 21 22 0
25 21 -22 0
25 -21 22 0
-25 21 22 0
27 22 30 0
27 22 -30 0
27 -22 30 0
-27 22 30 0
23 27 24 0
23 27 -24 0
23 -27 24 0
-23 27 24 0
22 21 24 0
22 21 -24 0
22 -21 24 0
-22 21 24 0
24 30 25 0
24 30 -25 0
24 -30 25 0
-24 30 25 0
24 27 26 0
24 27 -26 0
24 -27 26 0
-24 27 26 0
21 22 29 0
21 22 -29 0
21 -22 29 0
-21 22 29 0
23 24 30 0
23 24 -30 0
23 -24 30 0
-23 24 30 0
27 21 24 0
27 21 -24 0
27 -21 24 0
-27 21 24 0
29 30 22 0
29 30 -22 0
29 -30 22 0
-29 30 22 0
28 22 23 0
28 22 -23 0
28 -22 23 0
-28 22 23 0
22 21 26 0
22 21 -26 0
22 -21 26 0
-22 21 26 0
27 28 29 0
27 28 -29 0
27 -28 29 0
-27 28 29 0
30 25 24 0
30 25 -24 0
30 -25 24 0
-30 25 24 0
27 28 23 0
27 28 -23 0
27 -28 23 0
-27 28 23 0
24 27 21 0
24 27 -21 0
24 -27 21 0
-24 27 21 0
27 28 24 0
27 28 -24 0
27 -28 24 0
-27 28 24 0
28 21 30 0
28 21 -30 0
28 -21 30 0
-28 21 30 0
27 29 28 0
27 29 -28 0
27 -29 28 0
-27 29 28 0
23 29 25 0
23 29 -25 0
23 -29 25 0
-23 29 25 0
27 29 26 0
27 29 -26 0
27 -29 26 0
-27 29 26 0
21 29 28 0
21 29 -28 0
21 -29 28 0
-21 29 28 0
24 27 21 0
24 27 -21 0
24 -27 21 0
-24 27 21 0
26 30 21 0
26 30 -21 0
26 -30 21 0
-26 30 21 0
28 23 27 0
28 23 -27 0
28 -23 27 0
-28 23 27 0
21 24 30 0
21 24 -30 0
21 -24 30 0
-21 24 30 0
24 28 27 0
24 28 -27 0
24 -28 27 0
-24 28 27 0
21 23 24 0
21 23 -24 0
21 -23 24 0
-21 23 24 0
25 27 28 0
25 27 -28 0
25 -27 28 0
-25 27 28 0
23 26 30 0
23 26 -30 0
23 -26 30 0
-23 26 30 0
39 34 33 0
39 34 -33 0
39 -34 33 0
-39 34 33 0
32 40 38 0
32 40 -38 0
32 -40 38 0
-32 40 38 0
31 36 34 0
31 36 -34 0
31 -36 34 0
-31 36 34 0
34 39 33 0
34 39 -33 0
34 -39 33 0
-34 39 33 0
39 36 38 0
39 36 -38 0
39 -36 38 0
-39 36 38 0
33 39 35 0
33 39 -35 0
33 -39 35 0
-33 39 35 0
36 34 35 0
36 34 -35 0
36 -34 35 0
-36 34 35 0
32 40 33 0
32 40 -33 0
32 -40 33 0
-32 40 33 0
39 38 32 0
39 38 -32 0
39 -38 32 0
-39 38 32 0
37 33 36 0
37 33 -36 0
37 -33 36 0
-37 33 36 0
37 32 39 0
37 32 -39 0
37 -32 39 0
-37 32 39 0
32 31 36 0
32 31 -36 0
32 -31 36 0
-32 31 36 0
39 37 32 0
39 37 -32 0
39 -37 32 0
-39 37 32 0
40 33 32 0
40 33 -32 0
40 -33 32 0
-40 33 32 0
33 39 38 0
33 39 -38 0
33 -39 38 0
-33 39 38 0
35 36 40 0
35 36 -40 0
35 -36 40 0
-35 36 40 0
34 39 38 0
34 39 -38 0
34 -39 38 0
-34 39 38 0
39 35 34 0
39 35 -34 0
39 -35 34 0
-39 35 34 0
34 39 31 0
34 39 -31 0
34 -39 31 0
-34 39 31 0
36 33 34 0
36 33 -34 0
36 -33 34 0
-36 33 34 0
38 34 33 0
38 34 -33 0
38 -34 33 0
-38 34 33 0
40 36 31 0
40 36 -31 0
40 -36 31 0
-40 36 31 0
38 40 36 0
38 40 -36 0
38 -40 36 0
-38 40 36 0
33 31 32 0
33 31 -32 0
33 -31 32 0
-33 31 32 0
37 33 39 0
37 33 -39 0
37 -33 39 0
-37 33 39 0
39 36 31 0
39 36 -31 0
39 -36 31 0
-39 36 31 0
31 33 40 0
31 33 -40 0
31 -33 40 0
-31 33 40 0
39 36 40 0
39 36 -40 0
39 -36 40 0
-39 36 40 0
32 35 38 0
32 35 -38 0
32 -35 38 0
-32 35 38 0
38 36 33 0
38 36 -33 0
38 -36 33 0
-38 36 33 0
31 33 34 0
31 33 -34 0
31 -33 34 0
-31 33 34 0
34 33 36 0
34 33 -36 0
34 -33 36 0
-34 33 36 0
32 36 35 0
32 36 -35 0
32 -36 35 0
-32 36 35 0
31 32 39 0
31 32 -39 0
31 -32 39 0
-31 32 39 0
33 36 35 0
33 36 -35 0
33 -36 35 0
-33 36 35 0
37 39 32 0
37 39 -32 0
37 -39 32 0
-37 39 32 0
33 38 39 0
33 38 -39 0
33 -38 39 0
-33 38 39 0
39 35 38 0
39 35 -38 0
39 -35 38 0
-39 35 38 0
38 34 40 0
38 34 -40 0
38 -34 40 0
-38 34 40 0
40 38 31 0
40 38 -31 0
40 -38 31 0
-40 38 31 0
